61
120
96	1
95	3
94	1
93	2
92	1
90	1
89	2
88	1
86	2
84	2
81	1
80	1
79	1
78	1
77	1
76	4
75	2
74	2
73	2
72	2
71	1
70	1
69	1
68	1
67	2
66	4
65	2
64	4
63	2
61	2
60	1
59	2
58	1
55	2
54	4
52	1
49	1
48	1
47	2
46	1
45	2
41	3
39	2
38	1
36	1
35	1
34	1
32	1
31	1
30	1
29	1
27	2
25	2
24	1
23	3
19	1
17	1
16	1
15	2
14	1
12	2
